Optimizer called with the following parameters:
{'focal_plane_mask': {'field_stop_radius': None,
                      'grayscale': True,
                      'num_pix': 150,
                      'radius': 3.7},
 'image': {'bandwidth': 0.2,
           'contrast': 10,
           'iwa': 3.6,
           'num_wavelengths': 5,
           'owa': 14.0,
           'resolution': 2},
 'instrument': {'inst_name': 'USORT'},
 'lyot_stop': {'alignment_tolerance': 0,
               'filename': 'USORT/LS_USORT_hex_ID0000_OD0990_ovsamp16_N0128.fits',
               'num_lyot_stops': 1},
 'method': {'edge_width_for_prior': 2,
            'ending_scale': 1,
            'force_no_hermitian_symmetry': False,
            'force_no_x_mirror_symmetry': False,
            'force_no_y_mirror_symmetry': False,
            'initial_throughput_estimate': 1,
            'maximize_planet_throughput': True,
            'num_throughput_iterations': 2,
            'starting_scale': 1},
 'pupil': {'N': 128,
           'filename': 'USORT/TelAp_USORT_offaxis_ovsamp16_N0128.fits'},
 'solver': {'crossover': 0,
            'method': 2,
            'num_threads': 0}}

File organization:
{'analysis_dir': '/user/bnickson/GitHub/LUVex_TelAps/aplc_optimization/surveys/usort_offaxis_survey_N0128_telserv3/FPM37_IWA36/analysis',
 'drivers_dir': '/user/bnickson/GitHub/LUVex_TelAps/aplc_optimization/surveys/usort_offaxis_survey_N0128_telserv3/FPM37_IWA36/drivers',
 'input_files_dir': '/user/bnickson/GitHub/LUVex_TelAps/aplc_optimization/masks',
 'log_dir': '/user/bnickson/GitHub/LUVex_TelAps/aplc_optimization/surveys/usort_offaxis_survey_N0128_telserv3/FPM37_IWA36/logs',
 'solution_dir': '/user/bnickson/GitHub/LUVex_TelAps/aplc_optimization/surveys/usort_offaxis_survey_N0128_telserv3/FPM37_IWA36/solutions',
 'survey_dir': '/user/bnickson/GitHub/LUVex_TelAps/aplc_optimization/surveys/usort_offaxis_survey_N0128_telserv3/FPM37_IWA36'}

Telescope pupil:
   Mirror symmetry in x: yes
   Mirror symmetry in y: yes

Lyot stop #0:
   Mirror symmetry in x: yes
Lyot stop #0:
   Mirror symmetry in y: yes

Complete APLC:
   Mirror symmetry in x: yes
   Mirror symmetry in y: yes

Starting optimization at scale 1 with 2726 variables and 2885 constraints.
Creating model...
Set parameter Username
Academic license - for non-commercial use only - expires 2024-10-25
Set parameter Crossover to value 0
Set parameter Method to value 2
Calculating and adding constraints...
Wavelength 1/5; Variable 1000/2726
Wavelength 1/5; Variable 2000/2726
Warning for adding constraints: zero or small (< 1e-13) coefficients, ignored
Wavelength 2/5; Variable 1000/2726
Wavelength 2/5; Variable 2000/2726
Wavelength 3/5; Variable 1000/2726
Wavelength 3/5; Variable 2000/2726
Wavelength 4/5; Variable 1000/2726
Wavelength 4/5; Variable 2000/2726
Wavelength 5/5; Variable 1000/2726
Wavelength 5/5; Variable 2000/2726
Start optimization...
Gurobi Optimizer version 10.0.3 build v10.0.3rc0 (linux64)

CPU model: Intel(R) Xeon(R) Gold 6146 CPU @ 3.20GHz, instruction set [SSE2|AVX|AVX2|AVX512]
Thread count: 24 physical cores, 48 logical processors, using up to 24 threads

Optimize a model with 5770 rows, 2726 columns and 15729018 nonzeros
Model fingerprint: 0x5a5f9fd5
Coefficient statistics:
  Matrix range     [8e-13, 6e-04]
  Objective range  [4e-03, 1e+00]
  Bounds range     [1e+00, 1e+00]
  RHS range        [1e-05, 1e-05]
Presolve removed 0 rows and 0 columns (presolve time = 5s) ...
Presolve time: 5.74s
Presolved: 2726 rows, 8496 columns, 15731744 nonzeros
Error: invalid user locale; possible fix is to set the system environment
       variable 'LC_ALL' to a valid locale (e.g., to 'C')
Ordering time: 0.05s

Barrier statistics:
 AA' NZ     : 3.714e+06
 Factor NZ  : 3.717e+06 (roughly 34 MB of memory)
 Factor Ops : 6.756e+09 (less than 1 second per iteration)
 Threads    : 24

                  Objective                Residual
Iter       Primal          Dual         Primal    Dual     Compl     Time
   0   5.67292335e+03  0.00000000e+00  0.00e+00 0.00e+00  9.85e-01     8s
   1   2.67883387e+03  8.15147699e+02  0.00e+00 1.04e-01  2.61e-01     8s
   2   2.06094301e+03  9.85503246e+02  0.00e+00 8.21e-02  1.61e-01     9s
   3   1.78467046e+03  1.12084031e+03  0.00e+00 6.02e-02  1.11e-01     9s
   4   1.58744872e+03  1.17102580e+03  0.00e+00 4.73e-02  8.08e-02    10s
   5   1.47909783e+03  1.16999441e+03  0.00e+00 4.13e-02  6.71e-02    10s
   6   1.35085249e+03  1.17367232e+03  0.00e+00 3.55e-02  5.18e-02    11s
   7   1.25880748e+03  1.16386449e+03  0.00e+00 2.89e-02  3.88e-02    11s
   8   1.20153620e+03  1.15375242e+03  0.00e+00 2.60e-02  3.21e-02    12s
   9   1.15774480e+03  1.14122796e+03  0.00e+00 2.28e-02  2.60e-02    12s
  10   1.12915573e+03  1.13535483e+03  0.00e+00 2.14e-02  2.26e-02    12s
  11   1.09303633e+03  1.12254877e+03  0.00e+00 1.91e-02  1.80e-02    13s
  12   1.07586281e+03  1.11339134e+03  0.00e+00 1.76e-02  1.57e-02    13s
  13   1.06914603e+03  1.10111133e+03  0.00e+00 1.55e-02  1.40e-02    14s
  14   1.06305022e+03  1.09889870e+03  0.00e+00 1.52e-02  1.32e-02    14s
  15   1.05585841e+03  1.09671310e+03  0.00e+00 1.48e-02  1.24e-02    15s
  16   1.03942890e+03  1.08498015e+03  0.00e+00 1.29e-02  1.00e-02    15s
  17   1.02991827e+03  1.06526214e+03  0.00e+00 1.01e-02  8.00e-03    15s
  18   1.02011105e+03  1.06360476e+03  0.00e+00 9.91e-03  7.08e-03    16s
  19   1.00585191e+03  1.05537325e+03  0.00e+00 8.79e-03  5.43e-03    16s
  20   1.00433770e+03  1.05279438e+03  0.00e+00 8.46e-03  5.19e-03    17s
  21   9.98199631e+02  1.04996587e+03  0.00e+00 8.10e-03  4.64e-03    17s
  22   9.92669572e+02  1.03798557e+03  0.00e+00 6.65e-03  3.55e-03    18s
  23   9.89104393e+02  1.03242908e+03  0.00e+00 5.99e-03  3.05e-03    18s
  24   9.86992231e+02  1.02908875e+03  0.00e+00 5.61e-03  2.77e-03    18s
  25   9.86055484e+02  1.01526940e+03  0.00e+00 4.08e-03  2.12e-03    19s
  26   9.83360628e+02  1.00606469e+03  0.00e+00 3.06e-03  1.53e-03    19s
  27   9.81215137e+02  9.99000830e+02  0.00e+00 2.27e-03  1.05e-03    20s
  28   9.79934003e+02  9.93742627e+02  0.00e+00 1.68e-03  7.17e-04    20s
  29   9.79228679e+02  9.89919316e+02  0.00e+00 1.26e-03  5.09e-04    21s
  30   9.78962738e+02  9.86928752e+02  0.00e+00 9.35e-04  3.81e-04    21s
  31   9.78809924e+02  9.84780115e+02  0.00e+00 7.06e-04  2.92e-04    22s
  32   9.78540964e+02  9.82047010e+02  0.00e+00 4.15e-04  1.72e-04    22s
  33   9.78403718e+02  9.81841654e+02  0.00e+00 3.92e-04  1.53e-04    23s
  34   9.78307066e+02  9.80236588e+02  0.00e+00 2.23e-04  8.90e-05    23s
  35   9.78259433e+02  9.78592859e+02  0.00e+00 4.94e-05  2.82e-05    24s
  36   9.78222793e+02  9.78406970e+02  0.00e+00 2.91e-05  1.78e-05    25s
  37   9.78199502e+02  9.78319767e+02  0.00e+00 1.98e-05  1.26e-05    25s
  38   9.78176514e+02  9.78204752e+02  0.00e+00 7.59e-06  6.40e-06    25s
  39   9.78168750e+02  9.78151688e+02  3.25e-06 1.93e-06  3.79e-06    26s
  40   9.78165492e+02  9.78141286e+02  6.35e-06 8.05e-07  3.10e-06    27s
  41   9.78165477e+02  9.78141281e+02  1.35e-05 8.04e-07  3.10e-06    28s
  42   9.78165644e+02  9.78141281e+02  2.50e-05 8.04e-07  3.10e-06    28s
  43   9.78165753e+02  9.78141280e+02  1.91e-05 8.04e-07  3.06e-06    29s
  44   9.78164756e+02  9.78136225e+02  2.59e-05 3.04e-07  2.85e-06    30s
  45   9.78164208e+02  9.78135821e+02  4.20e-05 2.46e-07  2.77e-06    31s
  46   9.78162921e+02  9.78135377e+02  7.37e-05 1.84e-07  2.63e-06    32s
  47   9.78162935e+02  9.78135378e+02  7.44e-05 1.83e-07  2.63e-06    33s
  48   9.78162441e+02  9.78135365e+02  1.04e-04 1.82e-07  2.61e-06    34s
  49   9.78162455e+02  9.78135362e+02  1.07e-04 1.82e-07  2.61e-06    35s
  50   9.78159841e+02  9.78135178e+02  1.00e-04 1.58e-07  2.37e-06    36s
  51   9.78159699e+02  9.78135177e+02  1.01e-04 1.58e-07  2.37e-06    37s
  52   9.78157677e+02  9.78135105e+02  1.09e-04 1.49e-07  2.17e-06    38s
  53   9.78157693e+02  9.78135104e+02  9.12e-05 1.49e-07  2.17e-06    38s
  54   9.78150891e+02  9.78134381e+02  1.19e-04 6.79e-08  1.49e-06    40s
  55   9.78147325e+02  9.78134314e+02  1.10e-04 5.37e-08  1.21e-06    41s
  56   9.78145360e+02  9.78134297e+02  1.07e-04 4.97e-08  9.47e-07    42s
  57   9.78144427e+02  9.78134222e+02  2.00e-04 3.52e-08  8.39e-07    43s
  58   9.78143858e+02  9.78134214e+02  1.55e-04 3.34e-08  7.62e-07    44s
  59   9.78143378e+02  9.78134212e+02  1.63e-04 3.27e-08  7.42e-07    45s
  60   9.78143225e+02  9.78134212e+02  1.87e-04 3.27e-08  7.42e-07    45s
  61   9.78142758e+02  9.78134208e+02  1.80e-04 3.19e-08  7.29e-07    46s
  62   9.78141869e+02  9.78134203e+02  1.85e-04 3.07e-08  6.69e-07    46s
  63   9.78141676e+02  9.78134195e+02  1.75e-04 2.91e-08  6.44e-07    47s
  64   9.78141660e+02  9.78134188e+02  1.71e-04 2.73e-08  6.19e-07    48s
  65   9.78139575e+02  9.78134135e+02  1.34e-04 1.98e-08  4.63e-07    48s
  66   9.78139223e+02  9.78134133e+02  1.34e-04 1.93e-08  4.52e-07    49s
  67   9.78139048e+02  9.78134129e+02  1.31e-04 1.82e-08  4.23e-07    49s
  68   9.78138888e+02  9.78134127e+02  1.10e-04 1.74e-08  4.03e-07    50s
  69   9.78138601e+02  9.78134127e+02  9.53e-05 1.72e-08  3.79e-07    51s
  70   9.78138502e+02  9.78134120e+02  9.12e-05 1.52e-08  3.68e-07    51s
  71   9.78138336e+02  9.78134118e+02  9.11e-05 1.46e-08  3.58e-07    52s
  72   9.78138101e+02  9.78134116e+02  1.25e-04 1.40e-08  3.48e-07    53s
  73   9.78137751e+02  9.78134115e+02  1.58e-04 1.38e-08  3.36e-07    53s
  74   9.78137719e+02  9.78134113e+02  1.28e-04 1.33e-08  3.26e-07    54s
  75   9.78137384e+02  9.78134112e+02  1.16e-04 1.31e-08  3.07e-07    54s
  76   9.78137366e+02  9.78134107e+02  8.83e-05 1.15e-08  2.82e-07    55s
  77   9.78137431e+02  9.78134107e+02  9.27e-05 1.15e-08  2.82e-07    56s
  78   9.78137212e+02  9.78134107e+02  1.03e-04 1.12e-08  2.73e-07    56s
  79   9.78137284e+02  9.78134105e+02  1.04e-04 1.09e-08  2.63e-07    57s
  80   9.78137174e+02  9.78134105e+02  1.34e-04 1.08e-08  2.62e-07    57s
  81   9.78137114e+02  9.78134105e+02  1.33e-04 1.08e-08  2.61e-07    58s
  82   9.78136347e+02  9.78134049e+02  1.51e-04 5.67e-09  2.06e-07    59s
  83   9.78136015e+02  9.78134052e+02  1.66e-04 5.10e-09  1.87e-07    60s
  84   9.78136069e+02  9.78134051e+02  1.67e-04 5.09e-09  1.87e-07    61s
  85   9.78136007e+02  9.78134051e+02  1.72e-04 5.02e-09  1.84e-07    62s
  86   9.78135911e+02  9.78134051e+02  1.71e-04 5.02e-09  1.83e-07    63s
  87   9.78136031e+02  9.78134052e+02  1.87e-04 4.93e-09  1.78e-07    64s
  88   9.78136097e+02  9.78134052e+02  1.83e-04 4.93e-09  1.78e-07    65s
  89   9.78135917e+02  9.78134052e+02  1.71e-04 4.74e-09  1.72e-07    65s
  90   9.78135929e+02  9.78134052e+02  1.86e-04 4.74e-09  1.72e-07    66s
  91   9.78135988e+02  9.78134053e+02  1.77e-04 4.42e-09  1.70e-07    67s
  92   9.78135973e+02  9.78134052e+02  1.99e-04 4.33e-09  1.63e-07    68s
  93   9.78135990e+02  9.78134052e+02  2.10e-04 4.25e-09  1.60e-07    69s
  94   9.78135005e+02  9.78134052e+02  2.00e-04 4.12e-09  1.54e-07    69s
  95   9.78134973e+02  9.78134053e+02  2.00e-04 4.11e-09  1.54e-07    70s
  96   9.78135047e+02  9.78134054e+02  1.99e-04 3.98e-09  1.45e-07    71s
  97   9.78135101e+02  9.78134054e+02  1.86e-04 3.95e-09  1.42e-07    71s
  98   9.78135283e+02  9.78134054e+02  1.98e-04 3.95e-09  1.42e-07    72s
  99   9.78135056e+02  9.78134055e+02  1.83e-04 3.95e-09  1.42e-07    73s
 100   9.78135098e+02  9.78134055e+02  1.83e-04 3.93e-09  1.41e-07    74s
 101   9.78135096e+02  9.78134055e+02  1.84e-04 3.93e-09  1.41e-07    75s
 102   9.78134602e+02  9.78134055e+02  1.70e-04 3.80e-09  1.23e-07    76s
 103   9.78134715e+02  9.78134055e+02  1.76e-04 3.80e-09  1.22e-07    77s
 104   9.78134723e+02  9.78134055e+02  1.75e-04 3.75e-09  1.21e-07    78s
 105   9.78134758e+02  9.78134056e+02  1.72e-04 3.62e-09  1.19e-07    79s
 106   9.78134637e+02  9.78134057e+02  1.64e-04 3.45e-09  1.09e-07    81s
 107   9.78134970e+02  9.78134056e+02  2.38e-04 3.26e-09  1.01e-07    82s
 108   9.78134971e+02  9.78134056e+02  2.45e-04 3.25e-09  1.01e-07    83s
 109   9.78134907e+02  9.78134056e+02  2.47e-04 3.25e-09  1.01e-07    84s
 110   9.78135208e+02  9.78134054e+02  2.05e-04 3.10e-09  9.38e-08    85s
 111   9.78135189e+02  9.78134049e+02  1.89e-04 3.09e-09  9.37e-08    87s
 112   9.78135022e+02  9.78134051e+02  2.25e-04 3.09e-09  9.37e-08    88s
 113   9.78134865e+02  9.78134051e+02  2.08e-04 3.08e-09  9.17e-08    89s
 114   9.78134850e+02  9.78134052e+02  2.00e-04 2.73e-09  8.94e-08    91s
 115   9.78134225e+02  9.78134055e+02  2.91e-04 2.33e-09  7.87e-08    93s
 116   9.78133985e+02  9.78134055e+02  3.10e-04 2.28e-09  7.68e-08    95s
 117   9.78134174e+02  9.78134054e+02  3.11e-04 2.24e-09  7.48e-08    96s
 118   9.78134241e+02  9.78134055e+02  3.01e-04 2.11e-09  7.22e-08    99s
 119   9.78134692e+02  9.78134056e+02  2.90e-04 1.96e-09  6.81e-08   101s
 120   9.78134655e+02  9.78134057e+02  2.91e-04 1.89e-09  6.53e-08   102s
 121   9.78134475e+02  9.78134057e+02  3.49e-04 1.76e-09  5.76e-08   104s
 122   9.78134553e+02  9.78134058e+02  3.33e-04 1.71e-09  5.53e-08   105s
 123   9.78134551e+02  9.78134058e+02  3.33e-04 1.64e-09  5.49e-08   106s
 124   9.78134497e+02  9.78134058e+02  2.96e-04 1.58e-09  5.02e-08   107s
 125   9.78134535e+02  9.78134058e+02  2.86e-04 1.57e-09  4.99e-08   108s
 126   9.78134516e+02  9.78134058e+02  2.76e-04 1.54e-09  4.80e-08   109s
 127   9.78134654e+02  9.78134058e+02  3.29e-04 1.52e-09  4.68e-08   110s
 128   9.78134587e+02  9.78134058e+02  3.30e-04 1.50e-09  4.64e-08   111s
 129   9.78134519e+02  9.78134059e+02  3.16e-04 1.34e-09  4.47e-08   112s
 130   9.78134561e+02  9.78134060e+02  3.18e-04 1.34e-09  4.46e-08   113s
 131   9.78134657e+02  9.78134060e+02  3.01e-04 1.30e-09  4.32e-08   114s
 132   9.78134603e+02  9.78134061e+02  2.92e-04 1.30e-09  4.31e-08   115s
 133   9.78134562e+02  9.78134061e+02  2.69e-04 1.26e-09  4.10e-08   117s
 134   9.78134996e+02  9.78134061e+02  2.70e-04 1.25e-09  3.97e-08   118s
 135   9.78134885e+02  9.78134061e+02  2.65e-04 1.23e-09  3.92e-08   119s
 136   9.78134782e+02  9.78134061e+02  2.69e-04 1.20e-09  3.83e-08   120s
 137   9.78134630e+02  9.78134061e+02  2.67e-04 1.20e-09  3.78e-08   121s
 138   9.78134600e+02  9.78134061e+02  2.67e-04 1.20e-09  3.78e-08   122s
 139   9.78134383e+02  9.78134061e+02  2.61e-04 1.18e-09  3.60e-08   123s
 140   9.78134266e+02  9.78134061e+02  2.47e-04 1.18e-09  3.55e-08   124s
 141   9.78134165e+02  9.78134061e+02  2.53e-04 1.15e-09  3.50e-08   125s
 142   9.78134144e+02  9.78134061e+02  2.50e-04 1.14e-09  3.46e-08   126s
 143   9.78134102e+02  9.78134061e+02  2.46e-04 1.11e-09  3.35e-08   127s
 144   9.78134093e+02  9.78134061e+02  2.26e-04 1.08e-09  3.26e-08   128s
 145   9.78134335e+02  9.78134061e+02  2.29e-04 1.06e-09  3.20e-08   129s
 146   9.78134332e+02  9.78134061e+02  2.28e-04 1.04e-09  3.14e-08   130s
 147   9.78133819e+02  9.78134061e+02  2.25e-04 1.00e-09  2.90e-08   131s
 148   9.78133815e+02  9.78134061e+02  2.09e-04 9.91e-10  2.87e-08   132s
 149   9.78133905e+02  9.78134061e+02  2.05e-04 9.90e-10  2.86e-08   133s
 150   9.78134035e+02  9.78134061e+02  1.98e-04 9.50e-10  2.75e-08   134s
 151   9.78134151e+02  9.78134060e+02  1.89e-04 9.27e-10  2.72e-08   135s
 152   9.78133964e+02  9.78134060e+02  1.89e-04 9.27e-10  2.72e-08   136s
 153   9.78133982e+02  9.78134060e+02  1.84e-04 9.12e-10  2.70e-08   137s
 154   9.78133825e+02  9.78134060e+02  1.75e-04 8.95e-10  2.65e-08   138s
 155   9.78133990e+02  9.78134060e+02  1.80e-04 8.88e-10  2.63e-08   139s
 156   9.78133919e+02  9.78134061e+02  1.82e-04 8.59e-10  2.49e-08   140s
 157   9.78133993e+02  9.78134061e+02  1.89e-04 8.25e-10  2.41e-08   141s
 158   9.78133969e+02  9.78134061e+02  1.86e-04 8.05e-10  2.39e-08   142s
 159   9.78134295e+02  9.78134061e+02  1.88e-04 7.44e-10  2.27e-08   144s
 160   9.78134348e+02  9.78134061e+02  1.88e-04 7.26e-10  2.24e-08   145s
 161   9.78134353e+02  9.78134061e+02  1.70e-04 7.25e-10  2.24e-08   146s
 162   9.78134585e+02  9.78134062e+02  2.23e-04 5.93e-10  1.72e-08   147s
 163   9.78133796e+02  9.78134062e+02  1.91e-04 5.80e-10  1.60e-08   149s
 164   9.78133810e+02  9.78134062e+02  1.88e-04 5.73e-10  1.59e-08   150s
 165   9.78133709e+02  9.78134063e+02  1.57e-04 5.18e-10  1.40e-08   151s
 166   9.78133831e+02  9.78134063e+02  1.54e-04 5.09e-10  1.35e-08   152s
 167   9.78133750e+02  9.78134064e+02  1.58e-04 5.09e-10  1.35e-08   153s
 168   9.78133734e+02  9.78134063e+02  1.58e-04 5.04e-10  1.34e-08   154s
 169   9.78133699e+02  9.78134064e+02  1.57e-04 5.04e-10  1.34e-08   156s
 170   9.78133681e+02  9.78134064e+02  1.56e-04 5.00e-10  1.33e-08   157s
 171   9.78133687e+02  9.78134064e+02  1.55e-04 4.97e-10  1.31e-08   158s
 172   9.78133700e+02  9.78134064e+02  1.54e-04 4.97e-10  1.31e-08   159s
 173   9.78133663e+02  9.78134064e+02  1.36e-04 4.95e-10  1.30e-08   160s
 174   9.78133362e+02  9.78134064e+02  1.96e-04 4.93e-10  1.29e-08   161s
 175   9.78133666e+02  9.78134064e+02  2.01e-04 4.92e-10  1.29e-08   163s

Barrier performed 175 iterations in 162.69 seconds (108.29 work units)
Sub-optimal termination - objective 9.78165492e+02

Optimization finished!
Restarting optimization for throughput iteration 1...
Gurobi Optimizer version 10.0.3 build v10.0.3rc0 (linux64)

CPU model: Intel(R) Xeon(R) Gold 6146 CPU @ 3.20GHz, instruction set [SSE2|AVX|AVX2|AVX512]
Thread count: 24 physical cores, 48 logical processors, using up to 24 threads

Optimize a model with 5770 rows, 2726 columns and 15729018 nonzeros
Model fingerprint: 0x9459c7a2
Coefficient statistics:
  Matrix range     [8e-13, 6e-04]
  Objective range  [4e-03, 1e+00]
  Bounds range     [1e+00, 1e+00]
  RHS range        [5e-06, 5e-06]
Presolve removed 0 rows and 0 columns (presolve time = 6s) ...
Presolve time: 7.23s
Presolved: 2726 rows, 8496 columns, 15731744 nonzeros
Ordering time: 0.07s

Barrier statistics:
 AA' NZ     : 3.714e+06
 Factor NZ  : 3.717e+06 (roughly 34 MB of memory)
 Factor Ops : 6.756e+09 (less than 1 second per iteration)
 Threads    : 24

                  Objective                Residual
Iter       Primal          Dual         Primal    Dual     Compl     Time
   0   5.58411035e+03  0.00000000e+00  0.00e+00 0.00e+00  9.75e-01    11s
   1   2.59308827e+03  7.92931139e+02  0.00e+00 1.10e-01  2.64e-01    11s
   2   1.99417246e+03  9.36318865e+02  0.00e+00 9.07e-02  1.74e-01    12s
   3   1.68599612e+03  1.07412623e+03  0.00e+00 6.70e-02  1.21e-01    13s
   4   1.51280061e+03  1.11739326e+03  0.00e+00 5.57e-02  9.54e-02    14s
   5   1.40209716e+03  1.12774142e+03  0.00e+00 4.86e-02  7.96e-02    15s
   6   1.29529418e+03  1.12874957e+03  0.00e+00 4.19e-02  6.54e-02    16s
   7   1.17339669e+03  1.11859527e+03  0.00e+00 3.57e-02  5.07e-02    16s
   8   1.12634905e+03  1.10307876e+03  0.00e+00 3.04e-02  4.21e-02    17s
   9   1.07522864e+03  1.09080066e+03  0.00e+00 2.82e-02  3.64e-02    18s
  10   1.05548893e+03  1.08222686e+03  0.00e+00 2.68e-02  3.38e-02    18s
  11   1.00975148e+03  1.06416253e+03  0.00e+00 2.34e-02  2.71e-02    19s
  12   9.97787448e+02  1.05803447e+03  0.00e+00 2.25e-02  2.54e-02    20s
  13   9.83878398e+02  1.05188917e+03  0.00e+00 2.15e-02  2.37e-02    21s
  14   9.68656577e+02  1.04107961e+03  0.00e+00 1.99e-02  2.15e-02    21s
  15   9.52579196e+02  1.02646074e+03  0.00e+00 1.79e-02  1.88e-02    22s
  16   9.35367652e+02  1.00795527e+03  0.00e+00 1.54e-02  1.58e-02    23s
  17   9.24006121e+02  9.86957072e+02  0.00e+00 1.32e-02  1.35e-02    24s
  18   9.12851947e+02  9.70202666e+02  0.00e+00 1.15e-02  1.15e-02    24s
  19   9.02328658e+02  9.62589019e+02  0.00e+00 1.07e-02  9.93e-03    25s
  20   8.97860941e+02  9.55414414e+02  0.00e+00 9.93e-03  9.02e-03    26s
  21   8.94830230e+02  9.51788137e+02  0.00e+00 9.56e-03  8.47e-03    26s
  22   8.93517014e+02  9.47597917e+02  0.00e+00 9.11e-03  8.11e-03    27s
  23   8.81058877e+02  9.24793652e+02  0.00e+00 6.82e-03  5.60e-03    28s
  24   8.73193946e+02  9.22114705e+02  0.00e+00 6.55e-03  4.58e-03    28s
  25   8.68965524e+02  9.13404281e+02  0.00e+00 5.66e-03  3.81e-03    29s
  26   8.66046475e+02  8.96917724e+02  0.00e+00 4.06e-03  2.71e-03    30s
  27   8.63544658e+02  8.89964138e+02  0.00e+00 3.39e-03  2.17e-03    31s
  28   8.61905935e+02  8.86415968e+02  0.00e+00 3.05e-03  1.87e-03    31s
  29   8.61285444e+02  8.86059868e+02  0.00e+00 3.01e-03  1.79e-03    32s
  30   8.59110344e+02  8.84334131e+02  0.00e+00 2.84e-03  1.60e-03    33s
  31   8.58339907e+02  8.79810212e+02  0.00e+00 2.43e-03  1.38e-03    34s
  32   8.57460070e+02  8.77893699e+02  0.00e+00 2.26e-03  1.26e-03    34s
  33   8.56873120e+02  8.74651431e+02  0.00e+00 1.96e-03  1.09e-03    35s
  34   8.55341854e+02  8.69521465e+02  0.00e+00 1.50e-03  7.85e-04    36s
  35   8.54626150e+02  8.65743472e+02  0.00e+00 1.17e-03  6.16e-04    37s
  36   8.54034507e+02  8.63003961e+02  0.00e+00 9.30e-04  4.93e-04    37s
  37   8.53473173e+02  8.59273919e+02  0.00e+00 6.12e-04  3.31e-04    38s
  38   8.52951478e+02  8.58623504e+02  0.00e+00 5.56e-04  2.68e-04    39s
  39   8.52746846e+02  8.58228582e+02  0.00e+00 5.23e-04  2.42e-04    40s
  40   8.52602461e+02  8.57609805e+02  0.00e+00 4.71e-04  2.14e-04    41s
  41   8.52537949e+02  8.57395640e+02  0.00e+00 4.53e-04  2.01e-04    41s
  42   8.52350666e+02  8.55979030e+02  0.00e+00 3.36e-04  1.45e-04    42s
  43   8.52140096e+02  8.54780991e+02  0.00e+00 2.37e-04  9.71e-05    43s
  44   8.52020420e+02  8.53280210e+02  0.00e+00 1.14e-04  4.82e-05    44s
  45   8.51993214e+02  8.52585244e+02  0.00e+00 5.74e-05  2.78e-05    45s
  46   8.51945690e+02  8.52356293e+02  6.48e-07 3.87e-05  1.78e-05    45s
  47   8.51914963e+02  8.52139199e+02  1.44e-06 2.11e-05  9.63e-06    46s
  48   8.51903235e+02  8.52041332e+02  2.20e-06 1.31e-05  6.05e-06    47s
  49   8.51890367e+02  8.51936435e+02  5.67e-06 4.47e-06  2.19e-06    48s
  50   8.51885337e+02  8.51896587e+02  7.59e-06 1.19e-06  6.71e-07    49s
  51   8.51885341e+02  8.51896365e+02  5.64e-06 1.17e-06  6.64e-07    50s
  52   8.51885215e+02  8.51895354e+02  7.27e-06 1.09e-06  6.30e-07    51s
  53   8.51885192e+02  8.51893061e+02  8.65e-06 8.97e-07  4.58e-07    52s
  54   8.51885186e+02  8.51891408e+02  7.20e-06 7.59e-07  4.25e-07    53s
  55   8.51885144e+02  8.51890943e+02  9.17e-06 7.21e-07  4.13e-07    54s
  56   8.51885042e+02  8.51888134e+02  1.30e-05 4.89e-07  3.54e-07    56s
  57   8.51884801e+02  8.51887289e+02  1.70e-05 4.19e-07  3.21e-07    57s
  58   8.51884819e+02  8.51886729e+02  2.32e-05 3.72e-07  3.04e-07    58s
  59   8.51884850e+02  8.51886548e+02  3.47e-05 3.57e-07  2.89e-07    59s
  60   8.51884801e+02  8.51885094e+02  5.18e-05 2.35e-07  2.38e-07    60s
  61   8.51884665e+02  8.51884533e+02  5.51e-05 1.89e-07  2.22e-07    62s
  62   8.51884577e+02  8.51884288e+02  5.22e-05 1.69e-07  1.88e-07    63s
  63   8.51884513e+02  8.51884287e+02  6.23e-05 1.69e-07  1.88e-07    64s
  64   8.51884340e+02  8.51884189e+02  6.43e-05 1.60e-07  1.70e-07    65s
  65   8.51884324e+02  8.51883937e+02  5.62e-05 1.39e-07  1.55e-07    66s
  66   8.51884164e+02  8.51883486e+02  5.07e-05 1.02e-07  1.36e-07    67s
  67   8.51883607e+02  8.51883485e+02  5.54e-05 1.02e-07  1.36e-07    68s
  68   8.51883633e+02  8.51883330e+02  6.62e-05 8.92e-08  1.24e-07    69s
  69   8.51883759e+02  8.51883187e+02  8.12e-05 7.74e-08  1.15e-07    71s
  70   8.51883767e+02  8.51883187e+02  9.49e-05 7.73e-08  1.15e-07    72s
  71   8.51883300e+02  8.51883016e+02  9.07e-05 6.31e-08  1.04e-07    73s
  72   8.51882872e+02  8.51882933e+02  8.61e-05 5.64e-08  9.33e-08    74s
  73   8.51882865e+02  8.51882922e+02  8.82e-05 5.55e-08  8.91e-08    75s
  74   8.51882974e+02  8.51882922e+02  1.04e-04 5.55e-08  8.91e-08    76s
  75   8.51882828e+02  8.51882915e+02  9.21e-05 5.49e-08  8.80e-08    77s
  76   8.51883013e+02  8.51882894e+02  1.09e-04 5.31e-08  8.16e-08    78s
  77   8.51883123e+02  8.51882873e+02  9.78e-05 5.13e-08  7.89e-08    79s
  78   8.51883149e+02  8.51882849e+02  8.42e-05 4.94e-08  7.31e-08    80s
  79   8.51883359e+02  8.51882824e+02  9.74e-05 4.72e-08  6.72e-08    82s
  80   8.51883550e+02  8.51882707e+02  1.09e-04 3.78e-08  5.53e-08    83s
  81   8.51883020e+02  8.51882692e+02  1.38e-04 3.66e-08  5.15e-08    84s
  82   8.51883050e+02  8.51882641e+02  1.32e-04 3.23e-08  4.92e-08    85s
  83   8.51883033e+02  8.51882636e+02  1.34e-04 3.18e-08  4.82e-08    85s
  84   8.51883113e+02  8.51882609e+02  1.28e-04 2.96e-08  4.68e-08    87s
  85   8.51883223e+02  8.51882589e+02  1.09e-04 2.79e-08  4.32e-08    87s
  86   8.51882965e+02  8.51882572e+02  9.49e-05 2.65e-08  3.97e-08    89s
  87   8.51882958e+02  8.51882564e+02  9.19e-05 2.58e-08  3.88e-08    89s
  88   8.51882863e+02  8.51882560e+02  1.07e-04 2.55e-08  3.84e-08    91s
  89   8.51882949e+02  8.51882546e+02  1.08e-04 2.43e-08  3.63e-08    92s
  90   8.51882839e+02  8.51882485e+02  1.21e-04 1.92e-08  3.12e-08    93s
  91   8.51882887e+02  8.51882465e+02  1.19e-04 1.75e-08  2.96e-08    94s
  92   8.51882706e+02  8.51882455e+02  1.16e-04 1.67e-08  2.65e-08    95s
  93   8.51882670e+02  8.51882446e+02  1.10e-04 1.60e-08  2.58e-08    97s
  94   8.51882477e+02  8.51882446e+02  1.00e-04 1.60e-08  2.56e-08    98s
  95   8.51882906e+02  8.51882430e+02  1.45e-04 1.46e-08  2.11e-08    99s
  96   8.51882885e+02  8.51882430e+02  1.42e-04 1.46e-08  2.11e-08   100s
  97   8.51882958e+02  8.51882430e+02  1.43e-04 1.46e-08  2.11e-08   101s
  98   8.51883050e+02  8.51882409e+02  1.21e-04 1.29e-08  1.81e-08   102s
  99   8.51882634e+02  8.51882405e+02  1.34e-04 1.25e-08  1.74e-08   103s
 100   8.51882647e+02  8.51882391e+02  1.59e-04 1.14e-08  1.58e-08   106s
 101   8.51882653e+02  8.51882389e+02  1.60e-04 1.11e-08  1.56e-08   107s
 102   8.51882651e+02  8.51882387e+02  1.60e-04 1.09e-08  1.55e-08   108s
 103   8.51882645e+02  8.51882386e+02  1.60e-04 1.09e-08  1.55e-08   110s
 104   8.51882676e+02  8.51882386e+02  1.64e-04 1.09e-08  1.55e-08   111s
 105   8.51881985e+02  8.51882359e+02  1.32e-04 8.79e-09  1.26e-08   114s
 106   8.51882072e+02  8.51882349e+02  1.68e-04 7.92e-09  1.15e-08   115s
 107   8.51881763e+02  8.51882346e+02  1.40e-04 7.65e-09  1.08e-08   116s
 108   8.51882166e+02  8.51882336e+02  1.30e-04 6.90e-09  1.03e-08   119s
 109   8.51882188e+02  8.51882335e+02  1.33e-04 6.77e-09  1.02e-08   120s
 110   8.51882371e+02  8.51882332e+02  1.22e-04 6.53e-09  9.41e-09   122s
 111   8.51882246e+02  8.51882324e+02  1.50e-04 5.94e-09  8.00e-09   123s
 112   8.51882569e+02  8.51882323e+02  1.36e-04 5.86e-09  7.24e-09   125s
 113   8.51882474e+02  8.51882320e+02  1.43e-04 5.55e-09  6.60e-09   126s
 114   8.51882468e+02  8.51882319e+02  1.56e-04 5.54e-09  6.56e-09   127s
 115   8.51882381e+02  8.51882320e+02  1.52e-04 5.54e-09  6.56e-09   128s
 116   8.51882484e+02  8.51882307e+02  1.49e-04 4.52e-09  5.84e-09   130s
 117   8.51882663e+02  8.51882306e+02  1.46e-04 4.48e-09  5.76e-09   131s
 118   8.51882612e+02  8.51882306e+02  1.43e-04 4.47e-09  5.75e-09   132s
 119   8.51882632e+02  8.51882306e+02  1.43e-04 4.45e-09  5.74e-09   134s
 120   8.51882608e+02  8.51882306e+02  1.41e-04 4.44e-09  5.73e-09   135s
 121   8.51882677e+02  8.51882304e+02  1.44e-04 4.33e-09  5.45e-09   137s
 122   8.51882727e+02  8.51882304e+02  1.44e-04 4.30e-09  5.40e-09   138s
 123   8.51882536e+02  8.51882304e+02  1.47e-04 4.29e-09  5.35e-09   140s
 124   8.51882291e+02  8.51882302e+02  1.35e-04 4.15e-09  4.83e-09   141s
 125   8.51883217e+02  8.51882297e+02  2.07e-04 3.70e-09  4.04e-09   144s
 126   8.51883316e+02  8.51882296e+02  2.15e-04 3.68e-09  3.99e-09   145s
 127   8.51883435e+02  8.51882296e+02  1.99e-04 3.64e-09  3.95e-09   146s
 128   8.51883260e+02  8.51882289e+02  1.93e-04 2.98e-09  3.61e-09   148s
 129   8.51882917e+02  8.51882283e+02  2.03e-04 2.46e-09  3.21e-09   149s
 130   8.51882856e+02  8.51882283e+02  1.92e-04 2.44e-09  3.12e-09   150s
 131   8.51882741e+02  8.51882281e+02  1.86e-04 2.26e-09  2.93e-09   151s
 132   8.51882793e+02  8.51882280e+02  1.83e-04 2.16e-09  2.83e-09   152s
 133   8.51882811e+02  8.51882280e+02  1.84e-04 2.15e-09  2.83e-09   153s
 134   8.51882905e+02  8.51882280e+02  1.81e-04 2.15e-09  2.82e-09   154s
 135   8.51883038e+02  8.51882277e+02  1.42e-04 2.01e-09  2.62e-09   156s
 136   8.51883077e+02  8.51882277e+02  1.43e-04 2.01e-09  2.60e-09   157s
 137   8.51883101e+02  8.51882276e+02  1.44e-04 1.90e-09  2.55e-09   158s
 138   8.51883151e+02  8.51882276e+02  1.39e-04 1.84e-09  2.53e-09   160s
 139   8.51883021e+02  8.51882271e+02  7.36e-05 1.37e-09  1.44e-09   162s
 140   8.51883306e+02  8.51882270e+02  8.17e-05 1.36e-09  1.41e-09   163s
 141   8.51882820e+02  8.51882266e+02  1.48e-04 1.00e-09  1.10e-09   165s
 142   8.51882803e+02  8.51882266e+02  1.48e-04 1.00e-09  1.09e-09   166s
 143   8.51882736e+02  8.51882266e+02  1.45e-04 9.64e-10  1.08e-09   167s
 144   8.51882858e+02  8.51882266e+02  2.33e-04 9.64e-10  1.08e-09   168s
 145   8.51882957e+02  8.51882265e+02  1.96e-04 8.67e-10  9.33e-10   169s
 146   8.51882944e+02  8.51882265e+02  1.95e-04 8.57e-10  9.13e-10   170s
 147   8.51882888e+02  8.51882265e+02  1.94e-04 8.57e-10  9.13e-10   171s
 148   8.51882858e+02  8.51882264e+02  1.66e-04 8.32e-10  8.90e-10   172s
 149   8.51882996e+02  8.51882263e+02  1.32e-04 7.27e-10  8.20e-10   173s
 150   8.51882903e+02  8.51882263e+02  1.21e-04 6.86e-10  7.66e-10   174s
 151   8.51882771e+02  8.51882263e+02  1.23e-04 6.86e-10  7.66e-10   175s
 152   8.51882301e+02  8.51882262e+02  1.36e-04 6.85e-10  7.64e-10   176s
 153   8.51882332e+02  8.51882258e+02  9.97e-05 3.71e-10  7.01e-10   179s
 154   8.51882283e+02  8.51882258e+02  1.01e-04 3.72e-10  7.00e-10   180s
 155   8.51882264e+02  8.51882258e+02  1.02e-04 3.70e-10  6.95e-10   182s
 156   8.51882198e+02  8.51882258e+02  1.04e-04 3.63e-10  6.88e-10   183s
 157   8.51882220e+02  8.51882258e+02  1.06e-04 3.61e-10  6.88e-10   185s
 158   8.51882232e+02  8.51882258e+02  1.05e-04 3.60e-10  6.91e-10   186s
 159   8.51881505e+02  8.51882258e+02  1.32e-04 3.57e-10  6.83e-10   188s
 160   8.51881525e+02  8.51882258e+02  1.38e-04 3.56e-10  6.80e-10   189s
 161   8.51881605e+02  8.51882258e+02  1.44e-04 3.55e-10  6.78e-10   191s
 162   8.51881659e+02  8.51882257e+02  1.29e-04 3.39e-10  6.47e-10   192s
 163   8.51881301e+02  8.51882256e+02  1.03e-04 2.91e-10  5.36e-10   194s
 164   8.51881756e+02  8.51882256e+02  1.17e-04 2.59e-10  3.66e-10   196s
 165   8.51881826e+02  8.51882255e+02  1.10e-04 2.32e-10  3.35e-10   197s
 166   8.51882495e+02  8.51882253e+02  9.88e-05 1.20e-10  2.38e-10   200s
 167   8.51882508e+02  8.51882253e+02  9.97e-05 1.19e-10  2.33e-10   201s
 168   8.51882510e+02  8.51882253e+02  9.99e-05 1.19e-10  2.33e-10   202s
 169   8.51882574e+02  8.51882253e+02  1.26e-04 1.17e-10  2.16e-10   202s
 170   8.51882351e+02  8.51882253e+02  1.36e-04 1.17e-10  2.16e-10   203s
 171   8.51882349e+02  8.51882253e+02  1.36e-04 1.16e-10  2.16e-10   204s
 172   8.51882121e+02  8.51882253e+02  1.23e-04 1.14e-10  2.10e-10   206s
 173   8.51882100e+02  8.51882253e+02  1.22e-04 1.14e-10  2.08e-10   207s
 174   8.51882129e+02  8.51882253e+02  1.18e-04 1.10e-10  2.08e-10   208s
 175   8.51881681e+02  8.51882252e+02  1.02e-04 9.79e-11  1.73e-10   210s
 176   8.51881759e+02  8.51882252e+02  1.12e-04 9.80e-11  1.75e-10   211s
 177   8.51881778e+02  8.51882252e+02  9.76e-05 8.26e-11  1.52e-10   213s
 178   8.51881862e+02  8.51882252e+02  9.29e-05 7.37e-11  1.41e-10   215s
 179   8.51882099e+02  8.51882252e+02  7.47e-05 7.30e-11  1.34e-10   217s
 180   8.51882049e+02  8.51882252e+02  7.31e-05 7.12e-11  1.29e-10   218s
 181   8.51881909e+02  8.51882252e+02  6.98e-05 6.85e-11  1.15e-10   219s
 182   8.51881877e+02  8.51882252e+02  6.75e-05 6.72e-11  1.13e-10   220s
 183   8.51882003e+02  8.51882251e+02  9.03e-05 6.59e-11  1.04e-10   221s
 184   8.51881999e+02  8.51882251e+02  8.97e-05 6.27e-11  1.02e-10   222s
 185   8.51882072e+02  8.51882251e+02  8.83e-05 6.23e-11  1.01e-10   223s
 186   8.51882258e+02  8.51882251e+02  8.21e-05 5.96e-11  9.55e-11   223s

Barrier performed 186 iterations in 223.44 seconds (128.63 work units)
Sub-optimal termination - objective 8.51885215e+02

/user/bnickson/GitHub/LUVex_TelAps/aplc_optimization/surveys/usort_offaxis_survey_N0128_telserv3/FPM37_IWA36/drivers/08_USORT_N128_FPM370M0150_IWA0360_OWA01400_C10_BW20_Nlam5_LS_ID_ID00_ODOD09_ls_0_ovsamp16_N.py:102: DeprecationWarning: circular_aperture is deprecated. Its new name is make_circular_aperture.
  dark_zone_mask = circular_aperture(img_owa * 2)(focal_grid) - circular_aperture(img_iwa * 2)(focal_grid)
/user/bnickson/GitHub/LUVex_TelAps/aplc_optimization/surveys/usort_offaxis_survey_N0128_telserv3/FPM37_IWA36/drivers/08_USORT_N128_FPM370M0150_IWA0360_OWA01400_C10_BW20_Nlam5_LS_ID_ID00_ODOD09_ls_0_ovsamp16_N.py:110: DeprecationWarning: circular_aperture is deprecated. Its new name is make_circular_aperture.
  focal_plane_mask = 1 - evaluate_supersampled(circular_aperture(2 * fpm_radius), focal_mask_grid, 8)
WARNING: VerifyWarning: Keyword name 'LS_ALIGN_TOl' is greater than 8 characters or contains characters not allowed by the FITS standard; a HIERARCH card will be created. [astropy.io.fits.card]
WARNING: VerifyWarning: Keyword name 'LS_NUM_STOPS' is greater than 8 characters or contains characters not allowed by the FITS standard; a HIERARCH card will be created. [astropy.io.fits.card]
WARNING: VerifyWarning: Keyword name 'PROG_START' is greater than 8 characters or contains characters not allowed by the FITS standard; a HIERARCH card will be created. [astropy.io.fits.card]
WARNING: VerifyWarning: Keyword name 'PROG_EDGE' is greater than 8 characters or contains characters not allowed by the FITS standard; a HIERARCH card will be created. [astropy.io.fits.card]
WARNING: VerifyWarning: Keyword name 'THRPT_ITER' is greater than 8 characters or contains characters not allowed by the FITS standard; a HIERARCH card will be created. [astropy.io.fits.card]
WARNING: VerifyWarning: Keyword name 'THRPT_ESTIM' is greater than 8 characters or contains characters not allowed by the FITS standard; a HIERARCH card will be created. [astropy.io.fits.card]
WARNING: VerifyWarning: Keyword name 'MAX_THRPT' is greater than 8 characters or contains characters not allowed by the FITS standard; a HIERARCH card will be created. [astropy.io.fits.card]
WARNING: VerifyWarning: Keyword name 'SLV_THRDS' is greater than 8 characters or contains characters not allowed by the FITS standard; a HIERARCH card will be created. [astropy.io.fits.card]
WARNING: VerifyWarning: Keyword name 'SLV_XOVER' is greater than 8 characters or contains characters not allowed by the FITS standard; a HIERARCH card will be created. [astropy.io.fits.card]
Optimization finished!
